solving instance uflp nlass gunluk ../../../../../instances/uflp/gunluk/gunluk-20-40-4.txt cubic
Couenne 0.5.8 -- an Open-Source solver for Mixed Integer Nonlinear Optimization
Mailing list: couenne@list.coin-or.org
Instructions: http://www.coin-or.org/Couenne
couenne: 
ANALYSIS TEST: Reformulating problem: Couenne: new cutoff value 9.7951873896e+02 (2.16215 seconds)
2.2 seconds
NLP0012I 
              Num      Status      Obj             It       time                 Location
NLP0014I             1         OPT 316.16215      129 7.754999
NLP0014I             2      INFEAS 0.048162587       37 0.86196
Loaded instance "/tmp/jl_UXhnMk/model.nl"
Constraints:         2440
Variables:           2420 (820 integer)
Auxiliaries:         1640 (0 integer)

Coin0506I Presolve 10404 (-37) rows, 3984 (-76) columns and 24710 (-150) elements
Clp0006I 0  Obj -58694.316 Primal inf 3791.7274 (840)
Clp0006I 277  Obj -58694.316 Primal inf 2808.1555 (840)
Clp0006I 554  Obj -58694.316 Primal inf 1970.3274 (840)
Clp0006I 831  Obj -58694.316 Primal inf 1486.5852 (839)
Clp0006I 1108  Obj -42936.149 Primal inf 2397.6304 (1215)
Clp0006I 1385  Obj -20637.297 Primal inf 2683.1001 (1217)
Clp0006I 1662  Obj -7651.0465 Primal inf 1466.6068 (780)
Clp0006I 1939  Obj -2802.8673 Primal inf 172.52805 (210)
Clp0006I 2216  Obj -2407.034 Primal inf 68.72721 (158)
Clp0006I 2493  Obj -2279.6533 Primal inf 0.61687237 (4)
Clp0006I 2504  Obj -2278.4592
Clp0000I Optimal - objective value -2278.4592
Clp0032I Optimal objective -2278.459171 - 2504 iterations time 0.142, Presolve 0.02
Clp0000I Optimal - objective value -2278.4592
NLP Heuristic: NLP0014I             3      INFEAS 0.085835313       51 1.110661
no solution.
Clp0000I Optimal - objective value -2278.4592
Optimality Based BT: 0 improved bounds
Probing: 0 improved bounds
NLP Heuristic: time limit reached.
Cbc0031I 420 added rows had average density of 2
Cbc0013I At root node, 420 cuts changed objective from -2278.4592 to -2195.5992 in 20 passes
Cbc0014I Cut generator 0 (Couenne convexifier cuts) - 2685 row cuts average 2.0 elements, 21328 column cuts (21731 active)
Cbc0010I After 0 nodes, 1 on tree, 1e+50 best solution, best possible -1.7976931e+308 (20.11 seconds)
Optimality Based BT: 0 improved bounds
Optimality Based BT: 0 improved bounds
Optimality Based BT: 0 improved bounds
Optimality Based BT: 0 improved bounds
Optimality Based BT: 0 improved bounds
Cbc0010I After 100 nodes, 50 on tree, 1e+50 best solution, best possible -2180.2865 (199.65 seconds)
Cbc0010I After 200 nodes, 100 on tree, 1e+50 best solution, best possible -2180.2865 (215.37 seconds)
Cbc0010I After 300 nodes, 150 on tree, 1e+50 best solution, best possible -2180.2865 (231.12 seconds)
Cbc0010I After 400 nodes, 200 on tree, 1e+50 best solution, best possible -2180.2865 (247.26 seconds)
Cbc0010I After 500 nodes, 250 on tree, 1e+50 best solution, best possible -2180.2865 (262.99 seconds)
Cbc0010I After 600 nodes, 300 on tree, 1e+50 best solution, best possible -2180.2865 (278.48 seconds)
Cbc0010I After 700 nodes, 350 on tree, 1e+50 best solution, best possible -2180.2865 (292.23 seconds)
Cbc0010I After 800 nodes, 400 on tree, 1e+50 best solution, best possible -2180.2865 (305.06 seconds)
Cbc0010I After 900 nodes, 450 on tree, 1e+50 best solution, best possible -2180.2865 (317.95 seconds)
Cbc0010I After 1000 nodes, 500 on tree, 1e+50 best solution, best possible -2180.2865 (330.42 seconds)
Cbc0010I After 1100 nodes, 550 on tree, 1e+50 best solution, best possible -2180.2865 (342.99 seconds)
Cbc0010I After 1200 nodes, 600 on tree, 1e+50 best solution, best possible -2180.2865 (355.66 seconds)
Cbc0010I After 1300 nodes, 650 on tree, 1e+50 best solution, best possible -2180.2865 (368.24 seconds)
Cbc0010I After 1400 nodes, 700 on tree, 1e+50 best solution, best possible -2180.2865 (379.30 seconds)
Cbc0010I After 1500 nodes, 750 on tree, 1e+50 best solution, best possible -2180.2865 (387.65 seconds)
Cbc0010I After 1600 nodes, 800 on tree, 1e+50 best solution, best possible -2180.2865 (395.18 seconds)
Cbc0010I After 1700 nodes, 850 on tree, 1e+50 best solution, best possible -2180.2865 (402.73 seconds)
Cbc0010I After 1800 nodes, 900 on tree, 1e+50 best solution, best possible -2180.2865 (410.28 seconds)
Cbc0010I After 1900 nodes, 950 on tree, 1e+50 best solution, best possible -2180.2865 (418.04 seconds)
Cbc0010I After 2000 nodes, 1000 on tree, 1e+50 best solution, best possible -2180.2865 (425.93 seconds)
Cbc0010I After 2100 nodes, 1050 on tree, 1e+50 best solution, best possible -2180.2865 (433.57 seconds)
Cbc0010I After 2200 nodes, 1100 on tree, 1e+50 best solution, best possible -2180.2865 (441.06 seconds)
Cbc0010I After 2300 nodes, 1150 on tree, 1e+50 best solution, best possible -2180.2865 (448.52 seconds)
Cbc0010I After 2400 nodes, 1200 on tree, 1e+50 best solution, best possible -2180.2865 (456.53 seconds)
Couenne: new cutoff value 7.4250508465e+02 (469.36 seconds)
Optimality Based BT: 0 improved bounds
Optimality Based BT: 0 improved bounds
Optimality Based BT: 0 improved bounds
Cbc0010I After 2500 nodes, 1247 on tree, 1e+50 best solution, best possible -2172.2609 (579.04 seconds)
Cbc0010I After 2600 nodes, 1297 on tree, 1e+50 best solution, best possible -2172.2609 (593.73 seconds)
Cbc0010I After 2700 nodes, 1347 on tree, 1e+50 best solution, best possible -2172.2609 (608.93 seconds)
Cbc0010I After 2800 nodes, 1397 on tree, 1e+50 best solution, best possible -2172.2609 (624.00 seconds)
Cbc0010I After 2900 nodes, 1447 on tree, 1e+50 best solution, best possible -2172.2609 (638.11 seconds)
Cbc0010I After 3000 nodes, 1497 on tree, 1e+50 best solution, best possible -2172.2609 (651.66 seconds)
Cbc0010I After 3100 nodes, 1547 on tree, 1e+50 best solution, best possible -2172.2609 (664.63 seconds)
Cbc0010I After 3200 nodes, 1597 on tree, 1e+50 best solution, best possible -2172.2609 (677.13 seconds)
Cbc0010I After 3300 nodes, 1647 on tree, 1e+50 best solution, best possible -2172.2609 (689.38 seconds)
Cbc0010I After 3400 nodes, 1697 on tree, 1e+50 best solution, best possible -2172.2609 (701.65 seconds)
Cbc0010I After 3500 nodes, 1744 on tree, 1e+50 best solution, best possible -2172.2184 (777.25 seconds)
Cbc0010I After 3600 nodes, 1794 on tree, 1e+50 best solution, best possible -2172.2184 (802.41 seconds)
Cbc0010I After 3700 nodes, 1844 on tree, 1e+50 best solution, best possible -2172.2184 (816.94 seconds)
Cbc0010I After 3800 nodes, 1894 on tree, 1e+50 best solution, best possible -2172.2184 (832.06 seconds)
Cbc0010I After 3900 nodes, 1944 on tree, 1e+50 best solution, best possible -2172.2184 (847.03 seconds)
Cbc0010I After 4000 nodes, 1994 on tree, 1e+50 best solution, best possible -2172.2184 (861.27 seconds)
Cbc0010I After 4100 nodes, 2044 on tree, 1e+50 best solution, best possible -2172.2184 (874.47 seconds)
Cbc0010I After 4200 nodes, 2094 on tree, 1e+50 best solution, best possible -2172.2184 (886.90 seconds)
Cbc0010I After 4300 nodes, 2144 on tree, 1e+50 best solution, best possible -2172.2184 (899.18 seconds)
Cbc0010I After 4400 nodes, 2194 on tree, 1e+50 best solution, best possible -2172.2184 (911.12 seconds)
Cbc0010I After 4500 nodes, 2244 on tree, 1e+50 best solution, best possible -2172.2184 (923.42 seconds)
Optimality Based BT: 0 improved bounds
Cbc0010I After 4600 nodes, 2291 on tree, 1e+50 best solution, best possible -2165.0467 (988.43 seconds)
Cbc0010I After 4700 nodes, 2341 on tree, 1e+50 best solution, best possible -2165.0467 (1002.84 seconds)
Cbc0010I After 4800 nodes, 2391 on tree, 1e+50 best solution, best possible -2165.0467 (1017.70 seconds)
Cbc0010I After 4900 nodes, 2441 on tree, 1e+50 best solution, best possible -2165.0467 (1033.11 seconds)
Cbc0010I After 5000 nodes, 2491 on tree, 1e+50 best solution, best possible -2165.0467 (1049.53 seconds)
Cbc0010I After 5100 nodes, 2541 on tree, 1e+50 best solution, best possible -2165.0467 (1064.79 seconds)
Cbc0010I After 5200 nodes, 2591 on tree, 1e+50 best solution, best possible -2165.0467 (1079.49 seconds)
Cbc0010I After 5300 nodes, 2641 on tree, 1e+50 best solution, best possible -2165.0467 (1092.85 seconds)
Cbc0010I After 5400 nodes, 2691 on tree, 1e+50 best solution, best possible -2165.0467 (1105.69 seconds)
Cbc0010I After 5500 nodes, 2741 on tree, 1e+50 best solution, best possible -2165.0467 (1118.32 seconds)
Cbc0010I After 5600 nodes, 2791 on tree, 1e+50 best solution, best possible -2165.0467 (1130.68 seconds)
Cbc0010I After 5700 nodes, 2841 on tree, 1e+50 best solution, best possible -2165.0467 (1143.63 seconds)
Cbc0010I After 5800 nodes, 2887 on tree, 1e+50 best solution, best possible -2164.1907 (1160.86 seconds)
Cbc0010I After 5900 nodes, 2937 on tree, 1e+50 best solution, best possible -2164.1907 (1176.18 seconds)
Cbc0010I After 6000 nodes, 2987 on tree, 1e+50 best solution, best possible -2164.1907 (1191.59 seconds)
Cbc0010I After 6100 nodes, 3037 on tree, 1e+50 best solution, best possible -2164.1907 (1207.34 seconds)
Cbc0010I After 6200 nodes, 3087 on tree, 1e+50 best solution, best possible -2164.1907 (1221.28 seconds)
Cbc0010I After 6300 nodes, 3137 on tree, 1e+50 best solution, best possible -2164.1907 (1235.40 seconds)
Cbc0010I After 6400 nodes, 3187 on tree, 1e+50 best solution, best possible -2164.1907 (1248.47 seconds)
Cbc0010I After 6500 nodes, 3237 on tree, 1e+50 best solution, best possible -2164.1907 (1261.52 seconds)
Cbc0010I After 6600 nodes, 3287 on tree, 1e+50 best solution, best possible -2164.1907 (1274.24 seconds)
Cbc0010I After 6700 nodes, 3337 on tree, 1e+50 best solution, best possible -2164.1907 (1286.53 seconds)
Cbc0010I After 6800 nodes, 3387 on tree, 1e+50 best solution, best possible -2164.1907 (1299.51 seconds)
Optimality Based BT: 0 improved bounds
Cbc0010I After 6900 nodes, 3435 on tree, 1e+50 best solution, best possible -2163.7102 (1314.56 seconds)
Cbc0010I After 7000 nodes, 3485 on tree, 1e+50 best solution, best possible -2163.7102 (1328.73 seconds)
Cbc0010I After 7100 nodes, 3535 on tree, 1e+50 best solution, best possible -2163.7102 (1343.42 seconds)
Cbc0010I After 7200 nodes, 3585 on tree, 1e+50 best solution, best possible -2163.7102 (1357.37 seconds)
Cbc0010I After 7300 nodes, 3635 on tree, 1e+50 best solution, best possible -2163.7102 (1371.70 seconds)
Cbc0010I After 7400 nodes, 3685 on tree, 1e+50 best solution, best possible -2163.7102 (1385.16 seconds)
Cbc0010I After 7500 nodes, 3735 on tree, 1e+50 best solution, best possible -2163.7102 (1397.98 seconds)
Cbc0010I After 7600 nodes, 3785 on tree, 1e+50 best solution, best possible -2163.7102 (1410.55 seconds)
Cbc0010I After 7700 nodes, 3835 on tree, 1e+50 best solution, best possible -2163.7102 (1423.00 seconds)
Cbc0010I After 7800 nodes, 3885 on tree, 1e+50 best solution, best possible -2163.7102 (1435.15 seconds)
Cbc0010I After 7900 nodes, 3935 on tree, 1e+50 best solution, best possible -2163.7102 (1447.76 seconds)
Cbc0010I After 8000 nodes, 3983 on tree, 1e+50 best solution, best possible -2161.5584 (1461.74 seconds)
Cbc0010I After 8100 nodes, 4033 on tree, 1e+50 best solution, best possible -2161.5584 (1476.81 seconds)
Cbc0010I After 8200 nodes, 4083 on tree, 1e+50 best solution, best possible -2161.5584 (1491.99 seconds)
Cbc0010I After 8300 nodes, 4133 on tree, 1e+50 best solution, best possible -2161.5584 (1507.79 seconds)
Cbc0010I After 8400 nodes, 4183 on tree, 1e+50 best solution, best possible -2161.5584 (1522.96 seconds)
Cbc0010I After 8500 nodes, 4233 on tree, 1e+50 best solution, best possible -2161.5584 (1537.98 seconds)
Cbc0010I After 8600 nodes, 4283 on tree, 1e+50 best solution, best possible -2161.5584 (1551.44 seconds)
Cbc0010I After 8700 nodes, 4333 on tree, 1e+50 best solution, best possible -2161.5584 (1564.44 seconds)
Cbc0010I After 8800 nodes, 4383 on tree, 1e+50 best solution, best possible -2161.5584 (1577.21 seconds)
Cbc0010I After 8900 nodes, 4433 on tree, 1e+50 best solution, best possible -2161.5584 (1589.50 seconds)
Cbc0010I After 9000 nodes, 4483 on tree, 1e+50 best solution, best possible -2161.5584 (1601.95 seconds)
Cbc0010I After 9100 nodes, 4533 on tree, 1e+50 best solution, best possible -2161.5584 (1615.28 seconds)
Cbc0010I After 9200 nodes, 4581 on tree, 1e+50 best solution, best possible -2160.5912 (1640.49 seconds)
Cbc0010I After 9300 nodes, 4631 on tree, 1e+50 best solution, best possible -2160.5912 (1655.14 seconds)
Cbc0010I After 9400 nodes, 4681 on tree, 1e+50 best solution, best possible -2160.5912 (1670.29 seconds)
Cbc0010I After 9500 nodes, 4731 on tree, 1e+50 best solution, best possible -2160.5912 (1684.90 seconds)
Cbc0010I After 9600 nodes, 4781 on tree, 1e+50 best solution, best possible -2160.5912 (1699.01 seconds)
Cbc0010I After 9700 nodes, 4831 on tree, 1e+50 best solution, best possible -2160.5912 (1712.39 seconds)
Cbc0010I After 9800 nodes, 4881 on tree, 1e+50 best solution, best possible -2160.5912 (1725.20 seconds)
Cbc0010I After 9900 nodes, 4931 on tree, 1e+50 best solution, best possible -2160.5912 (1737.85 seconds)
Cbc0010I After 10000 nodes, 4981 on tree, 1e+50 best solution, best possible -2160.5912 (1750.12 seconds)
Cbc0010I After 10100 nodes, 5031 on tree, 1e+50 best solution, best possible -2160.5912 (1762.74 seconds)
Optimality Based BT: 0 improved bounds
Cbc0010I After 10200 nodes, 5078 on tree, 1e+50 best solution, best possible -2160.0287 (1776.90 seconds)
Cbc0010I After 10300 nodes, 5128 on tree, 1e+50 best solution, best possible -2160.0287 (1791.63 seconds)
Cbc0010I After 10400 nodes, 5178 on tree, 1e+50 best solution, best possible -2160.0287 (1806.72 seconds)
Cbc0010I After 10500 nodes, 5228 on tree, 1e+50 best solution, best possible -2160.0287 (1822.14 seconds)
Cbc0010I After 10600 nodes, 5278 on tree, 1e+50 best solution, best possible -2160.0287 (1838.93 seconds)
Cbc0010I After 10700 nodes, 5328 on tree, 1e+50 best solution, best possible -2160.0287 (1855.34 seconds)
Cbc0010I After 10800 nodes, 5378 on tree, 1e+50 best solution, best possible -2160.0287 (1870.36 seconds)
Cbc0010I After 10900 nodes, 5428 on tree, 1e+50 best solution, best possible -2160.0287 (1884.64 seconds)
Cbc0010I After 11000 nodes, 5478 on tree, 1e+50 best solution, best possible -2160.0287 (1898.25 seconds)
Cbc0010I After 11100 nodes, 5528 on tree, 1e+50 best solution, best possible -2160.0287 (1910.85 seconds)
Cbc0010I After 11200 nodes, 5578 on tree, 1e+50 best solution, best possible -2160.0287 (1923.40 seconds)
Cbc0010I After 11300 nodes, 5628 on tree, 1e+50 best solution, best possible -2160.0287 (1936.05 seconds)
Cbc0010I After 11400 nodes, 5675 on tree, 1e+50 best solution, best possible -2158.8664 (1949.20 seconds)
Cbc0010I After 11500 nodes, 5725 on tree, 1e+50 best solution, best possible -2158.8664 (1979.68 seconds)
Cbc0010I After 11600 nodes, 5775 on tree, 1e+50 best solution, best possible -2158.8664 (1994.06 seconds)
Cbc0010I After 11700 nodes, 5825 on tree, 1e+50 best solution, best possible -2158.8664 (2009.46 seconds)
Cbc0010I After 11800 nodes, 5875 on tree, 1e+50 best solution, best possible -2158.8664 (2024.92 seconds)
Cbc0010I After 11900 nodes, 5925 on tree, 1e+50 best solution, best possible -2158.8664 (2040.48 seconds)
Cbc0010I After 12000 nodes, 5975 on tree, 1e+50 best solution, best possible -2158.8664 (2055.82 seconds)
Cbc0010I After 12100 nodes, 6025 on tree, 1e+50 best solution, best possible -2158.8664 (2070.15 seconds)
Cbc0010I After 12200 nodes, 6075 on tree, 1e+50 best solution, best possible -2158.8664 (2083.93 seconds)
Cbc0010I After 12300 nodes, 6125 on tree, 1e+50 best solution, best possible -2158.8664 (2096.82 seconds)
Cbc0010I After 12400 nodes, 6175 on tree, 1e+50 best solution, best possible -2158.8664 (2109.36 seconds)
Cbc0010I After 12500 nodes, 6225 on tree, 1e+50 best solution, best possible -2158.8664 (2121.73 seconds)
Cbc0010I After 12600 nodes, 6275 on tree, 1e+50 best solution, best possible -2158.8664 (2134.83 seconds)
Cbc0010I After 12700 nodes, 6325 on tree, 1e+50 best solution, best possible -2158.8664 (2148.00 seconds)
Cbc0010I After 12800 nodes, 6375 on tree, 1e+50 best solution, best possible -2158.8664 (2159.05 seconds)
Cbc0010I After 12900 nodes, 6425 on tree, 1e+50 best solution, best possible -2158.8664 (2167.12 seconds)
Cbc0010I After 13000 nodes, 6475 on tree, 1e+50 best solution, best possible -2158.8664 (2174.56 seconds)
Cbc0010I After 13100 nodes, 6525 on tree, 1e+50 best solution, best possible -2158.8664 (2181.97 seconds)
Cbc0010I After 13200 nodes, 6575 on tree, 1e+50 best solution, best possible -2158.8664 (2189.81 seconds)
Cbc0010I After 13300 nodes, 6625 on tree, 1e+50 best solution, best possible -2158.8664 (2197.52 seconds)
Cbc0010I After 13400 nodes, 6675 on tree, 1e+50 best solution, best possible -2158.8664 (2205.02 seconds)
Cbc0010I After 13500 nodes, 6725 on tree, 1e+50 best solution, best possible -2158.8664 (2212.57 seconds)
Cbc0010I After 13600 nodes, 6775 on tree, 1e+50 best solution, best possible -2158.8664 (2220.28 seconds)
Couenne: new cutoff value 7.4231617895e+02 (2237.42 seconds)
Cbc0004I Integer solution of 742.31618 found after 1977068 iterations and 13667 nodes (2225.88 seconds)
Cbc0010I After 13700 nodes, 6308 on tree, 742.31618 best solution, best possible -2157.8681 (2245.96 seconds)
Cbc0010I After 13800 nodes, 6358 on tree, 742.31618 best solution, best possible -2157.8681 (2260.47 seconds)
Cbc0010I After 13900 nodes, 6408 on tree, 742.31618 best solution, best possible -2157.8681 (2275.41 seconds)
Cbc0010I After 14000 nodes, 6458 on tree, 742.31618 best solution, best possible -2157.8681 (2290.11 seconds)
Cbc0010I After 14100 nodes, 6508 on tree, 742.31618 best solution, best possible -2157.8681 (2304.30 seconds)
Cbc0010I After 14200 nodes, 6558 on tree, 742.31618 best solution, best possible -2157.8681 (2317.13 seconds)
Cbc0010I After 14300 nodes, 6608 on tree, 742.31618 best solution, best possible -2157.8681 (2329.68 seconds)
Cbc0010I After 14400 nodes, 6658 on tree, 742.31618 best solution, best possible -2157.8681 (2341.83 seconds)
Cbc0010I After 14500 nodes, 6708 on tree, 742.31618 best solution, best possible -2157.8681 (2353.75 seconds)
Cbc0010I After 14600 nodes, 6758 on tree, 742.31618 best solution, best possible -2157.8681 (2365.45 seconds)
Cbc0010I After 14700 nodes, 6808 on tree, 742.31618 best solution, best possible -2157.8681 (2377.44 seconds)
Cbc0010I After 14800 nodes, 6856 on tree, 742.31618 best solution, best possible -2157.0524 (2390.78 seconds)
Cbc0010I After 14900 nodes, 6906 on tree, 742.31618 best solution, best possible -2157.0524 (2405.11 seconds)
Cbc0010I After 15000 nodes, 6956 on tree, 742.31618 best solution, best possible -2157.0524 (2430.30 seconds)
Cbc0010I After 15100 nodes, 7006 on tree, 742.31618 best solution, best possible -2157.0524 (2446.19 seconds)
Cbc0010I After 15200 nodes, 7056 on tree, 742.31618 best solution, best possible -2157.0524 (2460.98 seconds)
Cbc0010I After 15300 nodes, 7106 on tree, 742.31618 best solution, best possible -2157.0524 (2475.24 seconds)
Cbc0010I After 15400 nodes, 7156 on tree, 742.31618 best solution, best possible -2157.0524 (2488.31 seconds)
Cbc0010I After 15500 nodes, 7206 on tree, 742.31618 best solution, best possible -2157.0524 (2500.52 seconds)
Cbc0010I After 15600 nodes, 7256 on tree, 742.31618 best solution, best possible -2157.0524 (2512.65 seconds)
Cbc0010I After 15700 nodes, 7306 on tree, 742.31618 best solution, best possible -2157.0524 (2524.52 seconds)
Cbc0010I After 15800 nodes, 7356 on tree, 742.31618 best solution, best possible -2157.0524 (2536.42 seconds)
Cbc0010I After 15900 nodes, 7406 on tree, 742.31618 best solution, best possible -2157.0524 (2548.82 seconds)
Cbc0010I After 16000 nodes, 7456 on tree, 742.31618 best solution, best possible -2157.0524 (2561.43 seconds)
Cbc0010I After 16100 nodes, 7506 on tree, 742.31618 best solution, best possible -2157.0524 (2572.41 seconds)
Cbc0010I After 16200 nodes, 7556 on tree, 742.31618 best solution, best possible -2157.0524 (2580.92 seconds)
Cbc0010I After 16300 nodes, 7606 on tree, 742.31618 best solution, best possible -2157.0524 (2588.44 seconds)
Cbc0010I After 16400 nodes, 7656 on tree, 742.31618 best solution, best possible -2157.0524 (2595.91 seconds)
Cbc0010I After 16500 nodes, 7706 on tree, 742.31618 best solution, best possible -2157.0524 (2603.11 seconds)
Cbc0010I After 16600 nodes, 7756 on tree, 742.31618 best solution, best possible -2157.0524 (2610.56 seconds)
Cbc0010I After 16700 nodes, 7806 on tree, 742.31618 best solution, best possible -2157.0524 (2618.43 seconds)
Cbc0010I After 16800 nodes, 7856 on tree, 742.31618 best solution, best possible -2157.0524 (2625.98 seconds)
Cbc0010I After 16900 nodes, 7906 on tree, 742.31618 best solution, best possible -2157.0524 (2633.47 seconds)
Cbc0010I After 17000 nodes, 7956 on tree, 742.31618 best solution, best possible -2157.0524 (2641.01 seconds)
Cbc0010I After 17100 nodes, 8006 on tree, 742.31618 best solution, best possible -2157.0524 (2648.55 seconds)
Couenne: new cutoff value 7.2567726205e+02 (2668.14 seconds)
Cbc0004I Integer solution of 725.67727 found after 2363985 iterations and 17199 nodes (2656.75 seconds)
Cbc0010I After 17200 nodes, 7393 on tree, 725.67727 best solution, best possible -2157.0524 (2670.71 seconds)
Optimality Based BT: 0 improved bounds
Cbc0010I After 17300 nodes, 7443 on tree, 725.67727 best solution, best possible -2155.7241 (2686.30 seconds)
Cbc0010I After 17400 nodes, 7493 on tree, 725.67727 best solution, best possible -2155.7241 (2700.43 seconds)
Cbc0010I After 17500 nodes, 7543 on tree, 725.67727 best solution, best possible -2155.7241 (2714.66 seconds)
Cbc0010I After 17600 nodes, 7593 on tree, 725.67727 best solution, best possible -2155.7241 (2729.38 seconds)
Cbc0010I After 17700 nodes, 7643 on tree, 725.67727 best solution, best possible -2155.7241 (2744.96 seconds)
Cbc0010I After 17800 nodes, 7693 on tree, 725.67727 best solution, best possible -2155.7241 (2759.40 seconds)
Cbc0010I After 17900 nodes, 7743 on tree, 725.67727 best solution, best possible -2155.7241 (2772.20 seconds)
Cbc0010I After 18000 nodes, 7793 on tree, 725.67727 best solution, best possible -2155.7241 (2784.88 seconds)
Cbc0010I After 18100 nodes, 7843 on tree, 725.67727 best solution, best possible -2155.7241 (2797.18 seconds)
Cbc0010I After 18200 nodes, 7893 on tree, 725.67727 best solution, best possible -2155.7241 (2809.15 seconds)
Cbc0010I After 18300 nodes, 7943 on tree, 725.67727 best solution, best possible -2155.7241 (2820.66 seconds)
Optimality Based BT: 0 improved bounds
Cbc0010I After 18400 nodes, 7989 on tree, 725.67727 best solution, best possible -2155.6083 (2834.37 seconds)
Cbc0010I After 18500 nodes, 8039 on tree, 725.67727 best solution, best possible -2155.6083 (2848.28 seconds)
Cbc0010I After 18600 nodes, 8089 on tree, 725.67727 best solution, best possible -2155.6083 (2863.01 seconds)
Cbc0010I After 18700 nodes, 8139 on tree, 725.67727 best solution, best possible -2155.6083 (2878.06 seconds)
Cbc0010I After 18800 nodes, 8189 on tree, 725.67727 best solution, best possible -2155.6083 (2893.56 seconds)
Cbc0010I After 18900 nodes, 8239 on tree, 725.67727 best solution, best possible -2155.6083 (2908.23 seconds)
Cbc0010I After 19000 nodes, 8289 on tree, 725.67727 best solution, best possible -2155.6083 (2921.39 seconds)
Cbc0010I After 19100 nodes, 8339 on tree, 725.67727 best solution, best possible -2155.6083 (2933.80 seconds)
Cbc0010I After 19200 nodes, 8389 on tree, 725.67727 best solution, best possible -2155.6083 (2945.62 seconds)
Cbc0010I After 19300 nodes, 8439 on tree, 725.67727 best solution, best possible -2155.6083 (2957.39 seconds)
Cbc0010I After 19400 nodes, 8489 on tree, 725.67727 best solution, best possible -2155.6083 (2969.41 seconds)
Cbc0010I After 19500 nodes, 8536 on tree, 725.67727 best solution, best possible -2155.3216 (2982.71 seconds)
Cbc0010I After 19600 nodes, 8586 on tree, 725.67727 best solution, best possible -2155.3216 (2996.67 seconds)
Cbc0010I After 19700 nodes, 8636 on tree, 725.67727 best solution, best possible -2155.3216 (3010.97 seconds)
Cbc0010I After 19800 nodes, 8686 on tree, 725.67727 best solution, best possible -2155.3216 (3025.36 seconds)
Cbc0010I After 19900 nodes, 8736 on tree, 725.67727 best solution, best possible -2155.3216 (3038.98 seconds)
Cbc0010I After 20000 nodes, 8786 on tree, 725.67727 best solution, best possible -2155.3216 (3052.30 seconds)
Cbc0010I After 20100 nodes, 8836 on tree, 725.67727 best solution, best possible -2155.3216 (3064.73 seconds)
Cbc0010I After 20200 nodes, 8886 on tree, 725.67727 best solution, best possible -2155.3216 (3076.02 seconds)
Cbc0010I After 20300 nodes, 8936 on tree, 725.67727 best solution, best possible -2155.3216 (3087.47 seconds)
Cbc0010I After 20400 nodes, 8986 on tree, 725.67727 best solution, best possible -2155.3216 (3098.60 seconds)
Cbc0010I After 20500 nodes, 9032 on tree, 725.67727 best solution, best possible -2153.8202 (3131.57 seconds)
Cbc0010I After 20600 nodes, 9082 on tree, 725.67727 best solution, best possible -2153.8202 (3146.97 seconds)
Cbc0010I After 20700 nodes, 9132 on tree, 725.67727 best solution, best possible -2153.8202 (3161.39 seconds)
Cbc0010I After 20800 nodes, 9182 on tree, 725.67727 best solution, best possible -2153.8202 (3177.10 seconds)
Cbc0010I After 20900 nodes, 9232 on tree, 725.67727 best solution, best possible -2153.8202 (3192.60 seconds)
Cbc0010I After 21000 nodes, 9282 on tree, 725.67727 best solution, best possible -2153.8202 (3207.41 seconds)
Cbc0010I After 21100 nodes, 9332 on tree, 725.67727 best solution, best possible -2153.8202 (3221.51 seconds)
Cbc0010I After 21200 nodes, 9382 on tree, 725.67727 best solution, best possible -2153.8202 (3235.24 seconds)
Cbc0010I After 21300 nodes, 9432 on tree, 725.67727 best solution, best possible -2153.8202 (3248.68 seconds)
Cbc0010I After 21400 nodes, 9482 on tree, 725.67727 best solution, best possible -2153.8202 (3261.40 seconds)
Cbc0010I After 21500 nodes, 9532 on tree, 725.67727 best solution, best possible -2153.8202 (3273.65 seconds)
Cbc0010I After 21600 nodes, 9582 on tree, 725.67727 best solution, best possible -2153.8202 (3285.69 seconds)
Cbc0010I After 21700 nodes, 9632 on tree, 725.67727 best solution, best possible -2153.8202 (3297.44 seconds)
Cbc0010I After 21800 nodes, 9679 on tree, 725.67727 best solution, best possible -2153.6057 (3324.39 seconds)
Cbc0010I After 21900 nodes, 9729 on tree, 725.67727 best solution, best possible -2153.6057 (3338.04 seconds)
Cbc0010I After 22000 nodes, 9779 on tree, 725.67727 best solution, best possible -2153.6057 (3351.52 seconds)
Cbc0010I After 22100 nodes, 9829 on tree, 725.67727 best solution, best possible -2153.6057 (3365.83 seconds)
Cbc0010I After 22200 nodes, 9879 on tree, 725.67727 best solution, best possible -2153.6057 (3380.64 seconds)
Cbc0010I After 22300 nodes, 9929 on tree, 725.67727 best solution, best possible -2153.6057 (3395.12 seconds)
Cbc0010I After 22400 nodes, 9979 on tree, 725.67727 best solution, best possible -2153.6057 (3409.28 seconds)
Cbc0010I After 22500 nodes, 10029 on tree, 725.67727 best solution, best possible -2153.6057 (3422.28 seconds)
Cbc0010I After 22600 nodes, 10079 on tree, 725.67727 best solution, best possible -2153.6057 (3434.62 seconds)
Cbc0010I After 22700 nodes, 10129 on tree, 725.67727 best solution, best possible -2153.6057 (3446.30 seconds)
Cbc0010I After 22800 nodes, 10179 on tree, 725.67727 best solution, best possible -2153.6057 (3457.61 seconds)
Cbc0010I After 22900 nodes, 10229 on tree, 725.67727 best solution, best possible -2153.6057 (3469.17 seconds)
Cbc0010I After 23000 nodes, 10276 on tree, 725.67727 best solution, best possible -2153.5286 (3484.37 seconds)
Cbc0010I After 23100 nodes, 10326 on tree, 725.67727 best solution, best possible -2153.5286 (3497.74 seconds)
Cbc0010I After 23200 nodes, 10376 on tree, 725.67727 best solution, best possible -2153.5286 (3511.56 seconds)
Cbc0010I After 23300 nodes, 10426 on tree, 725.67727 best solution, best possible -2153.5286 (3525.08 seconds)
Cbc0010I After 23400 nodes, 10476 on tree, 725.67727 best solution, best possible -2153.5286 (3537.49 seconds)
Cbc0010I After 23500 nodes, 10526 on tree, 725.67727 best solution, best possible -2153.5286 (3549.87 seconds)
Cbc0010I After 23600 nodes, 10576 on tree, 725.67727 best solution, best possible -2153.5286 (3561.88 seconds)
Cbc0010I After 23700 nodes, 10626 on tree, 725.67727 best solution, best possible -2153.5286 (3573.72 seconds)
Cbc0010I After 23800 nodes, 10676 on tree, 725.67727 best solution, best possible -2153.5286 (3584.99 seconds)
Cbc0020I Exiting on maximum time
Cbc0005I Partial search - best objective 725.67727 (best possible -2153.5286), took 3543455 iterations and 23832 nodes (3660.95 seconds)
Cbc0035I Maximum depth 1231, 0 variables fixed on reduced cost

 	"Not finished"

Linearization cuts added at root node:      10441
Linearization cuts added in total:          10441  (separation time: 0.021141s)
Total solve time:                         3661.17s (3661.17s in branch-and-bound)
Lower bound:                             -2153.53
Upper bound:                              725.677  (gap: 133.64%)
Branch-and-bound nodes:                     23832
Stats: /tmp/jl_UXhnMk/model.nl 2420 [var]  820 [int] 2440 [con] 1640 [aux]  10441 [root]    10441 [tot] 0.021141 [sep]  3661.17 [time]  3661.17 [bb]        -2.153529e+03 [lower]         7.256773e+02 [upper]   23832 [nodes]
Performance of                           FBBT:	    133.548s,    44454 runs. fix:          0 shrnk:    30.1967 ubd:          0 2ubd:          0 infeas:          0
Performance of                           OBBT:	    10.4415s,       14 runs. fix:          0 shrnk:          0 ubd:          0 2ubd:          0 infeas:          0
ERROR: LoadError: MathOptInterface.GetAttributeNotAllowed{MathOptInterface.ObjectiveBound}: Getting attribute MathOptInterface.ObjectiveBound() cannot be performed: AmplNLWriter.Optimizer does not support getting the attribute MathOptInterface.ObjectiveBound(). You may want to use a `CachingOptimizer` in `AUTOMATIC` mode or you may need to call `reset_optimizer` before doing this operation if the `CachingOptimizer` is in `MANUAL` mode.
Stacktrace:
  [1] get_fallback(model::AmplNLWriter.Optimizer, attr::MathOptInterface.ObjectiveBound)
    @ MathOptInterface ~/.julia/packages/MathOptInterface/gLl4d/src/attributes.jl:409
  [2] get(::AmplNLWriter.Optimizer, ::MathOptInterface.ObjectiveBound)
    @ MathOptInterface ~/.julia/packages/MathOptInterface/gLl4d/src/attributes.jl:390
  [3] _get_model_attribute(model::MathOptInterface.Utilities.CachingOptimizer{AmplNLWriter.Optimizer, MathOptInterface.Utilities.UniversalFallback{MathOptInterface.Utilities.Model{Float64}}}, attr::MathOptInterface.ObjectiveBound)
    @ MathOptInterface.Utilities ~/.julia/packages/MathOptInterface/gLl4d/src/Utilities/cachingoptimizer.jl:865
  [4] get(model::MathOptInterface.Utilities.CachingOptimizer{AmplNLWriter.Optimizer, MathOptInterface.Utilities.UniversalFallback{MathOptInterface.Utilities.Model{Float64}}}, attr::MathOptInterface.ObjectiveBound)
    @ MathOptInterface.Utilities ~/.julia/packages/MathOptInterface/gLl4d/src/Utilities/cachingoptimizer.jl:900
  [5] get(b::MathOptInterface.Bridges.LazyBridgeOptimizer{MathOptInterface.Utilities.CachingOptimizer{AmplNLWriter.Optimizer, MathOptInterface.Utilities.UniversalFallback{MathOptInterface.Utilities.Model{Float64}}}}, attr::MathOptInterface.ObjectiveBound)
    @ MathOptInterface.Bridges ~/.julia/packages/MathOptInterface/gLl4d/src/Bridges/bridge_optimizer.jl:889
  [6] _get_model_attribute(model::MathOptInterface.Utilities.CachingOptimizer{MathOptInterface.Bridges.LazyBridgeOptimizer{MathOptInterface.Utilities.CachingOptimizer{AmplNLWriter.Optimizer, MathOptInterface.Utilities.UniversalFallback{MathOptInterface.Utilities.Model{Float64}}}}, MathOptInterface.Utilities.UniversalFallback{MathOptInterface.Utilities.Model{Float64}}}, attr::MathOptInterface.ObjectiveBound)
    @ MathOptInterface.Utilities ~/.julia/packages/MathOptInterface/gLl4d/src/Utilities/cachingoptimizer.jl:865
  [7] get(model::MathOptInterface.Utilities.CachingOptimizer{MathOptInterface.Bridges.LazyBridgeOptimizer{MathOptInterface.Utilities.CachingOptimizer{AmplNLWriter.Optimizer, MathOptInterface.Utilities.UniversalFallback{MathOptInterface.Utilities.Model{Float64}}}}, MathOptInterface.Utilities.UniversalFallback{MathOptInterface.Utilities.Model{Float64}}}, attr::MathOptInterface.ObjectiveBound)
    @ MathOptInterface.Utilities ~/.julia/packages/MathOptInterface/gLl4d/src/Utilities/cachingoptimizer.jl:900
  [8] _moi_get_result(model::MathOptInterface.Utilities.CachingOptimizer{MathOptInterface.Bridges.LazyBridgeOptimizer{MathOptInterface.Utilities.CachingOptimizer{AmplNLWriter.Optimizer, MathOptInterface.Utilities.UniversalFallback{MathOptInterface.Utilities.Model{Float64}}}}, MathOptInterface.Utilities.UniversalFallback{MathOptInterface.Utilities.Model{Float64}}}, args::MathOptInterface.ObjectiveBound)
    @ JuMP ~/.julia/packages/JuMP/i68GU/src/optimizer_interface.jl:1053
  [9] get(model::JuMP.Model, attr::MathOptInterface.ObjectiveBound)
    @ JuMP ~/.julia/packages/JuMP/i68GU/src/optimizer_interface.jl:1073
 [10] objective_bound(model::JuMP.Model)
    @ JuMP ~/.julia/packages/JuMP/i68GU/src/objective.jl:78
 [11] nl_uflp_nlass(filename::String, cost::Symbol, solver::AmplNLWriter.Optimizer, solver_params::Vector{Any}; solve::Bool, write_nl::Bool, with_cap_constraint::Bool)
    @ IterativePWLB ~/git/ipwlb/code/sources/IterativePWLB/src/nlsolver.jl:885
 [12] top-level scope
    @ ~/git/ipwlb/code/sources/IterativePWLB/test/couenne/uflp_nlass/script.jl:14
in expression starting at /home/ccontard/git/ipwlb/code/sources/IterativePWLB/test/couenne/uflp_nlass/script.jl:14
Generating Gunluk and Lee data file ../../../../../instances/uflp/gunluk/gunluk-20-40-4.txt
